
  22   10
  10   10   10   10   10   10   10   10   10   10

   0   0   0   0   0   0   0   0   0   0   0   2 2 4 
   4  10  10  10  10  10  10  10  10  10  10   2 8 3 
   5  10  10  10  10  10  10  10  10  10  10   3 16 12 5 
   2  10  10  10  10  10  10  10  10  10  10   3 16 12 5 
   9  10  10  10  10  10  10  10  10  10  10   3 21 20 6 
   4  10  10  10  10  10  10  10  10  10  10   3 15 10 7 
   8  10  10  10  10  10  10  10  10  10  10   3 19 18 9 
   2  10  10  10  10  10  10  10  10  10  10   2 18 11 
   6  10  10  10  10  10  10  10  10  10  10   1 11 
   7  10  10  10  10  10  10  10  10  10  10   2 18 14 
   6  10  10  10  10  10  10  10  10  10  10   1 13 
   2  10  10  10  10  10  10  10  10  10  10   2 20 18 
   5  10  10  10  10  10  10  10  10  10  10   1 14 
   9  10  10  10  10  10  10  10  10  10  10   1 17 
   4  10  10  10  10  10  10  10  10  10  10   1 19 
   6  10  10  10  10  10  10  10  10  10  10   1 20 
   5  10  10  10  10  10  10  10  10  10  10   1 22
   3  10  10  10  10  10  10  10  10  10  10   1 22
   4  10  10  10  10  10  10  10  10  10  10   1 22
   6  10  10  10  10  10  10  10  10  10  10   1 22
   2  10  10  10  10  10  10  10  10  10  10   1 22
   0   0   0   0   0   0   0   0   0   0   0   0 
